p cnf 36 45
-34 6 5 0
27 -30 -7 0
-17 25 13 0
-24 8 22 0
13 -35 11 0
36 35 -17 0
-36 27 36 0
28 -34 15 0
-27 -14 -3 0
7 32 -29 0
36 -11 32 0
-20 -32 -36 0
-3 24 -13 0
33 16 10 0
18 7 -30 0
-8 -32 -26 0
-13 15 -7 0
8 19 26 0
-10 1 23 0
7 -4 5 0
-6 -24 -6 0
7 -9 -11 0
-2 22 -14 0
-21 -9 -27 0
-6 -35 13 0
-36 -11 -11 0
23 3 22 0
-30 4 16 0
-23 22 5 0
-29 -3 -15 0
-26 13 32 0
-34 -10 30 0
-5 -10 -7 0
-28 -17 1 0
25 3 2 0
28 -22 26 0
34 -15 -26 0
24 27 -13 0
-27 23 9 0
-1 14 6 0
-32 -25 28 0
-13 21 3 0
28 -22 31 0
14 -6 14 0
12 -6 -24 0
